(set-logic QF_NRA)
(set-info :source |Benchmarks generated from hycomp (https://es-static.fbk.eu/tools/hycomp/). BMC instances of non-linear hybrid automata taken from: Alessandro Cimatti, Sergio Mover, Stefano Tonetta, A quantifier-free SMT encoding of non-linear hybrid automata, FMCAD 2012 and Alessandro Cimatti, Sergio Mover, Stefano Tonetta, Quantier-free encoding of invariants for Hybrid Systems, Formal Methods in System Design. This instance solves a BMC problem of depth 2 and uses the quantifier free encoding with equivalences encoding. Contacts: Sergio Mover (mover@fbk.eu), Stefano Tonetta (tonettas@fbk.eu), Alessandro Cimatti (cimatti@fbk.eu).|)
(set-info :smt-lib-version 2.0)
(set-info :category "industrial")
(set-info :status unsat)
;; MathSAT API call trace
;; generated on Mon Mar 19 10:42:01 2012
(declare-fun b.y__AT0 () Real)
(declare-fun b.counter.0__AT0 () Bool)
(declare-fun b.EVENT.0__AT0 () Bool)
(declare-fun b.counter.3__AT0 () Bool)
(declare-fun b.counter.1__AT0 () Bool)
(declare-fun b.event_is_timed__AT1 () Bool)
(declare-fun b.bool_atom__AT1 () Bool)
(declare-fun b.g__AT0 () Real)
(declare-fun b.speed_y__AT0 () Real)
(declare-fun b.event_is_timed__AT2 () Bool)
(declare-fun b.x__AT1 () Real)
(declare-fun b.y__AT1 () Real)
(declare-fun b.counter.2__AT0 () Bool)
(declare-fun b.counter.0__AT1 () Bool)
(declare-fun b.counter.1__AT1 () Bool)
(declare-fun b.bool_atom__AT2 () Bool)
(declare-fun b.y__AT2 () Real)
(declare-fun b.counter.2__AT1 () Bool)
(declare-fun b.time__AT2 () Real)
(declare-fun b.event_is_timed__AT0 () Bool)
(declare-fun b.counter.3__AT1 () Bool)
(declare-fun b.bool_atom__AT0 () Bool)
(declare-fun b.delta__AT2 () Real)
(declare-fun b.x__AT0 () Real)
(declare-fun b.x__AT2 () Real)
(declare-fun b.EVENT.0__AT2 () Bool)
(declare-fun b.counter.0__AT2 () Bool)
(declare-fun b.EVENT.1__AT2 () Bool)
(declare-fun b.delta__AT1 () Real)
(declare-fun b.speed_y__AT1 () Real)
(declare-fun b.counter.1__AT2 () Bool)
(declare-fun b.time__AT1 () Real)
(declare-fun b.EVENT.0__AT1 () Bool)
(declare-fun b.counter.2__AT2 () Bool)
(declare-fun b.time__AT0 () Real)
(declare-fun b.EVENT.1__AT1 () Bool)
(declare-fun b.counter.3__AT2 () Bool)
(declare-fun b.speed_y__AT2 () Real)
(declare-fun b.delta__AT0 () Real)
(declare-fun b.EVENT.1__AT0 () Bool)
(assert (let ((.def_65 (* (- 1.0) b.g__AT0)))
(let ((.def_68 (* (/ 1 2) .def_65)))
(let ((.def_81 (* 2.0 .def_68)))
(let ((.def_441 (* .def_81 b.delta__AT2)))
(let ((.def_442 (+ b.speed_y__AT2 .def_441)))
(let ((.def_446 (<= .def_442 0.0 )))
(let ((.def_445 (<= b.speed_y__AT2 0.0 )))
(let ((.def_447 (and .def_445 .def_446)))
(let ((.def_443 (<= 0.0 .def_442)))
(let ((.def_440 (<= 0.0 b.speed_y__AT2)))
(let ((.def_444 (and .def_440 .def_443)))
(let ((.def_448 (or .def_444 .def_447)))
(let ((.def_431 (* b.speed_y__AT2 b.delta__AT2)))
(let ((.def_429 (* b.delta__AT2 b.delta__AT2)))
(let ((.def_430 (* .def_68 .def_429)))
(let ((.def_432 (+ .def_430 .def_431)))
(let ((.def_418 (* (- 1.0) b.x__AT2)))
(let ((.def_419 (* b.x__AT2 .def_418)))
(let ((.def_433 (* (- 1.0) .def_419)))
(let ((.def_436 (+ .def_433 .def_432)))
(let ((.def_437 (+ b.y__AT2 .def_436)))
(let ((.def_438 (<= 0.0 .def_437)))
(let ((.def_420 (<= .def_419 b.y__AT2)))
(let ((.def_439 (and .def_420 .def_438)))
(let ((.def_449 (and .def_439 .def_448)))
(let ((.def_57 (<= b.g__AT0 10.0 )))
(let ((.def_56 (<= 8.0 b.g__AT0)))
(let ((.def_58 (and .def_56 .def_57)))
(let ((.def_450 (and .def_58 .def_449)))
(let ((.def_161 (not b.counter.0__AT1)))
(let ((.def_151 (not b.counter.1__AT1)))
(let ((.def_424 (and .def_151 .def_161)))
(let ((.def_156 (not b.counter.2__AT1)))
(let ((.def_425 (and .def_156 .def_424)))
(let ((.def_421 (and .def_58 .def_420)))
(let ((.def_415 (not b.EVENT.0__AT2)))
(let ((.def_413 (not b.EVENT.1__AT2)))
(let ((.def_416 (or .def_413 .def_415)))
(let ((.def_6 (not b.counter.0__AT2)))
(let ((.def_4 (not b.counter.1__AT2)))
(let ((.def_406 (or .def_4 .def_6)))
(let ((.def_410 (or b.counter.3__AT2 .def_406)))
(let ((.def_407 (or b.counter.2__AT2 .def_406)))
(let ((.def_9 (not b.counter.2__AT2)))
(let ((.def_405 (or .def_6 .def_9)))
(let ((.def_408 (and .def_405 .def_407)))
(let ((.def_344 (not b.counter.3__AT2)))
(let ((.def_409 (or .def_344 .def_408)))
(let ((.def_411 (and .def_409 .def_410)))
(let ((.def_417 (and .def_411 .def_416)))
(let ((.def_422 (and .def_417 .def_421)))
(let ((.def_400 (<= 0.0 b.delta__AT1)))
(let ((.def_240 (not b.EVENT.0__AT1)))
(let ((.def_238 (not b.EVENT.1__AT1)))
(let ((.def_275 (and .def_238 .def_240)))
(let ((.def_277 (not .def_275)))
(let ((.def_401 (or .def_277 .def_400)))
(let ((.def_402 (or b.EVENT.1__AT1 .def_401)))
(let ((.def_313 (= b.bool_atom__AT1 b.bool_atom__AT2)))
(let ((.def_309 (= b.counter.0__AT2 b.counter.0__AT1)))
(let ((.def_307 (= b.counter.1__AT2 b.counter.1__AT1)))
(let ((.def_305 (= b.counter.2__AT2 b.counter.2__AT1)))
(let ((.def_304 (= b.counter.3__AT1 b.counter.3__AT2)))
(let ((.def_306 (and .def_304 .def_305)))
(let ((.def_308 (and .def_306 .def_307)))
(let ((.def_310 (and .def_308 .def_309)))
(let ((.def_396 (and .def_310 .def_313)))
(let ((.def_397 (or .def_277 .def_396)))
(let ((.def_398 (or b.EVENT.1__AT1 .def_397)))
(let ((.def_385 (* .def_65 b.delta__AT1)))
(let ((.def_386 (* (- 1.0) b.speed_y__AT2)))
(let ((.def_389 (+ .def_386 .def_385)))
(let ((.def_390 (+ b.speed_y__AT1 .def_389)))
(let ((.def_391 (= .def_390 0.0 )))
(let ((.def_376 (* (- 1.0) b.y__AT2)))
(let ((.def_254 (* b.speed_y__AT1 b.delta__AT1)))
(let ((.def_380 (+ .def_254 .def_376)))
(let ((.def_252 (* b.delta__AT1 b.delta__AT1)))
(let ((.def_253 (* .def_68 .def_252)))
(let ((.def_381 (+ .def_253 .def_380)))
(let ((.def_382 (+ b.y__AT1 .def_381)))
(let ((.def_383 (= .def_382 0.0 )))
(let ((.def_295 (= b.x__AT1 b.x__AT2)))
(let ((.def_384 (and .def_295 .def_383)))
(let ((.def_392 (and .def_384 .def_391)))
(let ((.def_393 (or .def_277 .def_392)))
(let ((.def_298 (= b.y__AT1 b.y__AT2)))
(let ((.def_371 (and .def_295 .def_298)))
(let ((.def_301 (= b.speed_y__AT1 b.speed_y__AT2)))
(let ((.def_372 (and .def_301 .def_371)))
(let ((.def_368 (= b.delta__AT1 0.0 )))
(let ((.def_369 (and .def_275 .def_368)))
(let ((.def_370 (not .def_369)))
(let ((.def_373 (or .def_370 .def_372)))
(let ((.def_374 (or b.EVENT.1__AT1 .def_373)))
(let ((.def_361 (and .def_301 .def_310)))
(let ((.def_362 (or b.bool_atom__AT1 .def_361)))
(let ((.def_336 (or .def_6 b.counter.0__AT1)))
(let ((.def_335 (or b.counter.0__AT2 .def_161)))
(let ((.def_337 (and .def_335 .def_336)))
(let ((.def_338 (and .def_4 .def_337)))
(let ((.def_339 (or b.counter.1__AT1 .def_338)))
(let ((.def_334 (or b.counter.1__AT2 .def_151)))
(let ((.def_340 (and .def_334 .def_339)))
(let ((.def_352 (and .def_9 .def_340)))
(let ((.def_353 (or b.counter.2__AT1 .def_352)))
(let ((.def_347 (and .def_4 .def_161)))
(let ((.def_348 (or b.counter.1__AT1 .def_347)))
(let ((.def_349 (and .def_334 .def_348)))
(let ((.def_350 (and b.counter.2__AT2 .def_349)))
(let ((.def_351 (or .def_156 .def_350)))
(let ((.def_354 (and .def_351 .def_353)))
(let ((.def_355 (and b.counter.3__AT2 .def_354)))
(let ((.def_356 (or b.counter.3__AT1 .def_355)))
(let ((.def_341 (and b.counter.2__AT2 .def_340)))
(let ((.def_342 (or b.counter.2__AT1 .def_341)))
(let ((.def_330 (or b.counter.1__AT2 b.counter.1__AT1)))
(let ((.def_328 (and .def_4 b.counter.0__AT2)))
(let ((.def_329 (or .def_151 .def_328)))
(let ((.def_331 (and .def_329 .def_330)))
(let ((.def_332 (and .def_9 .def_331)))
(let ((.def_333 (or .def_156 .def_332)))
(let ((.def_343 (and .def_333 .def_342)))
(let ((.def_345 (and .def_343 .def_344)))
(let ((.def_170 (not b.counter.3__AT1)))
(let ((.def_346 (or .def_170 .def_345)))
(let ((.def_357 (and .def_346 .def_356)))
(let ((.def_325 (* b.speed_y__AT2 b.speed_y__AT2)))
(let ((.def_147 (* b.speed_y__AT1 b.speed_y__AT1)))
(let ((.def_326 (= .def_147 .def_325)))
(let ((.def_323 (+ b.speed_y__AT1 b.speed_y__AT2)))
(let ((.def_324 (= .def_323 0.0 )))
(let ((.def_327 (and .def_324 .def_326)))
(let ((.def_358 (and .def_327 .def_357)))
(let ((.def_322 (not b.bool_atom__AT1)))
(let ((.def_359 (or .def_322 .def_358)))
(let ((.def_263 (<= 0.0 b.speed_y__AT1)))
(let ((.def_319 (not .def_263)))
(let ((.def_243 (* (- 1.0) b.x__AT1)))
(let ((.def_244 (* b.x__AT1 .def_243)))
(let ((.def_318 (= b.y__AT1 .def_244)))
(let ((.def_320 (and .def_318 .def_319)))
(let ((.def_321 (= b.bool_atom__AT1 .def_320)))
(let ((.def_360 (and .def_321 .def_359)))
(let ((.def_363 (and .def_360 .def_362)))
(let ((.def_364 (and .def_295 .def_363)))
(let ((.def_365 (and .def_298 .def_364)))
(let ((.def_366 (or .def_275 .def_365)))
(let ((.def_367 (or b.EVENT.1__AT1 .def_366)))
(let ((.def_375 (and .def_367 .def_374)))
(let ((.def_394 (and .def_375 .def_393)))
(let ((.def_282 (= b.time__AT1 b.time__AT2)))
(let ((.def_296 (and .def_282 .def_295)))
(let ((.def_299 (and .def_296 .def_298)))
(let ((.def_302 (and .def_299 .def_301)))
(let ((.def_311 (and .def_302 .def_310)))
(let ((.def_314 (and .def_311 .def_313)))
(let ((.def_315 (or .def_238 .def_314)))
(let ((.def_285 (* (- 1.0) b.time__AT2)))
(let ((.def_288 (+ b.delta__AT1 .def_285)))
(let ((.def_289 (+ b.time__AT1 .def_288)))
(let ((.def_290 (= .def_289 0.0 )))
(let ((.def_291 (or .def_277 .def_290)))
(let ((.def_292 (or b.EVENT.1__AT1 .def_291)))
(let ((.def_283 (or .def_275 .def_282)))
(let ((.def_284 (or b.EVENT.1__AT1 .def_283)))
(let ((.def_293 (and .def_284 .def_292)))
(let ((.def_316 (and .def_293 .def_315)))
(let ((.def_279 (= .def_277 b.event_is_timed__AT2)))
(let ((.def_276 (= b.event_is_timed__AT1 .def_275)))
(let ((.def_280 (and .def_276 .def_279)))
(let ((.def_317 (and .def_280 .def_316)))
(let ((.def_395 (and .def_317 .def_394)))
(let ((.def_399 (and .def_395 .def_398)))
(let ((.def_403 (and .def_399 .def_402)))
(let ((.def_404 (and .def_238 .def_403)))
(let ((.def_423 (and .def_404 .def_422)))
(let ((.def_426 (and .def_423 .def_425)))
(let ((.def_264 (* .def_81 b.delta__AT1)))
(let ((.def_265 (+ b.speed_y__AT1 .def_264)))
(let ((.def_269 (<= .def_265 0.0 )))
(let ((.def_268 (<= b.speed_y__AT1 0.0 )))
(let ((.def_270 (and .def_268 .def_269)))
(let ((.def_266 (<= 0.0 .def_265)))
(let ((.def_267 (and .def_263 .def_266)))
(let ((.def_271 (or .def_267 .def_270)))
(let ((.def_255 (+ .def_253 .def_254)))
(let ((.def_256 (* (- 1.0) .def_244)))
(let ((.def_259 (+ .def_256 .def_255)))
(let ((.def_260 (+ b.y__AT1 .def_259)))
(let ((.def_261 (<= 0.0 .def_260)))
(let ((.def_245 (<= .def_244 b.y__AT1)))
(let ((.def_262 (and .def_245 .def_261)))
(let ((.def_272 (and .def_262 .def_271)))
(let ((.def_273 (and .def_58 .def_272)))
(let ((.def_246 (and .def_58 .def_245)))
(let ((.def_241 (or .def_238 .def_240)))
(let ((.def_231 (or .def_151 .def_161)))
(let ((.def_235 (or b.counter.3__AT1 .def_231)))
(let ((.def_232 (or b.counter.2__AT1 .def_231)))
(let ((.def_230 (or .def_156 .def_161)))
(let ((.def_233 (and .def_230 .def_232)))
(let ((.def_234 (or .def_170 .def_233)))
(let ((.def_236 (and .def_234 .def_235)))
(let ((.def_242 (and .def_236 .def_241)))
(let ((.def_247 (and .def_242 .def_246)))
(let ((.def_225 (<= 0.0 b.delta__AT0)))
(let ((.def_46 (not b.EVENT.0__AT0)))
(let ((.def_44 (not b.EVENT.1__AT0)))
(let ((.def_93 (and .def_44 .def_46)))
(let ((.def_95 (not .def_93)))
(let ((.def_226 (or .def_95 .def_225)))
(let ((.def_227 (or b.EVENT.1__AT0 .def_226)))
(let ((.def_135 (= b.bool_atom__AT0 b.bool_atom__AT1)))
(let ((.def_130 (= b.counter.0__AT0 b.counter.0__AT1)))
(let ((.def_127 (= b.counter.1__AT0 b.counter.1__AT1)))
(let ((.def_124 (= b.counter.2__AT0 b.counter.2__AT1)))
(let ((.def_122 (= b.counter.3__AT0 b.counter.3__AT1)))
(let ((.def_125 (and .def_122 .def_124)))
(let ((.def_128 (and .def_125 .def_127)))
(let ((.def_131 (and .def_128 .def_130)))
(let ((.def_221 (and .def_131 .def_135)))
(let ((.def_222 (or .def_95 .def_221)))
(let ((.def_223 (or b.EVENT.1__AT0 .def_222)))
(let ((.def_210 (* b.delta__AT0 .def_65)))
(let ((.def_211 (* (- 1.0) b.speed_y__AT1)))
(let ((.def_214 (+ .def_211 .def_210)))
(let ((.def_215 (+ b.speed_y__AT0 .def_214)))
(let ((.def_216 (= .def_215 0.0 )))
(let ((.def_202 (* (- 1.0) b.y__AT1)))
(let ((.def_71 (* b.delta__AT0 b.speed_y__AT0)))
(let ((.def_205 (+ .def_71 .def_202)))
(let ((.def_64 (* b.delta__AT0 b.delta__AT0)))
(let ((.def_69 (* .def_64 .def_68)))
(let ((.def_206 (+ .def_69 .def_205)))
(let ((.def_207 (+ b.y__AT0 .def_206)))
(let ((.def_208 (= .def_207 0.0 )))
(let ((.def_113 (= b.x__AT0 b.x__AT1)))
(let ((.def_209 (and .def_113 .def_208)))
(let ((.def_217 (and .def_209 .def_216)))
(let ((.def_218 (or .def_95 .def_217)))
(let ((.def_116 (= b.y__AT0 b.y__AT1)))
(let ((.def_197 (and .def_113 .def_116)))
(let ((.def_119 (= b.speed_y__AT0 b.speed_y__AT1)))
(let ((.def_198 (and .def_119 .def_197)))
(let ((.def_194 (= b.delta__AT0 0.0 )))
(let ((.def_195 (and .def_93 .def_194)))
(let ((.def_196 (not .def_195)))
(let ((.def_199 (or .def_196 .def_198)))
(let ((.def_200 (or b.EVENT.1__AT0 .def_199)))
(let ((.def_187 (and .def_119 .def_131)))
(let ((.def_188 (or b.bool_atom__AT0 .def_187)))
(let ((.def_162 (or b.counter.0__AT0 .def_161)))
(let ((.def_27 (not b.counter.0__AT0)))
(let ((.def_160 (or .def_27 b.counter.0__AT1)))
(let ((.def_163 (and .def_160 .def_162)))
(let ((.def_164 (and .def_151 .def_163)))
(let ((.def_165 (or b.counter.1__AT0 .def_164)))
(let ((.def_25 (not b.counter.1__AT0)))
(let ((.def_159 (or .def_25 b.counter.1__AT1)))
(let ((.def_166 (and .def_159 .def_165)))
(let ((.def_178 (and .def_156 .def_166)))
(let ((.def_179 (or b.counter.2__AT0 .def_178)))
(let ((.def_173 (and .def_27 .def_151)))
(let ((.def_174 (or b.counter.1__AT0 .def_173)))
(let ((.def_175 (and .def_159 .def_174)))
(let ((.def_176 (and b.counter.2__AT1 .def_175)))
(let ((.def_30 (not b.counter.2__AT0)))
(let ((.def_177 (or .def_30 .def_176)))
(let ((.def_180 (and .def_177 .def_179)))
(let ((.def_181 (and b.counter.3__AT1 .def_180)))
(let ((.def_182 (or b.counter.3__AT0 .def_181)))
(let ((.def_167 (and b.counter.2__AT1 .def_166)))
(let ((.def_168 (or b.counter.2__AT0 .def_167)))
(let ((.def_154 (or b.counter.1__AT0 b.counter.1__AT1)))
(let ((.def_152 (and b.counter.0__AT1 .def_151)))
(let ((.def_153 (or .def_25 .def_152)))
(let ((.def_155 (and .def_153 .def_154)))
(let ((.def_157 (and .def_155 .def_156)))
(let ((.def_158 (or .def_30 .def_157)))
(let ((.def_169 (and .def_158 .def_168)))
(let ((.def_171 (and .def_169 .def_170)))
(let ((.def_33 (not b.counter.3__AT0)))
(let ((.def_172 (or .def_33 .def_171)))
(let ((.def_183 (and .def_172 .def_182)))
(let ((.def_148 (* b.speed_y__AT0 b.speed_y__AT0)))
(let ((.def_149 (= .def_147 .def_148)))
(let ((.def_145 (+ b.speed_y__AT0 b.speed_y__AT1)))
(let ((.def_146 (= .def_145 0.0 )))
(let ((.def_150 (and .def_146 .def_149)))
(let ((.def_184 (and .def_150 .def_183)))
(let ((.def_144 (not b.bool_atom__AT0)))
(let ((.def_185 (or .def_144 .def_184)))
(let ((.def_80 (<= 0.0 b.speed_y__AT0)))
(let ((.def_141 (not .def_80)))
(let ((.def_51 (* (- 1.0) b.x__AT0)))
(let ((.def_52 (* b.x__AT0 .def_51)))
(let ((.def_140 (= b.y__AT0 .def_52)))
(let ((.def_142 (and .def_140 .def_141)))
(let ((.def_143 (= b.bool_atom__AT0 .def_142)))
(let ((.def_186 (and .def_143 .def_185)))
(let ((.def_189 (and .def_186 .def_188)))
(let ((.def_190 (and .def_113 .def_189)))
(let ((.def_191 (and .def_116 .def_190)))
(let ((.def_192 (or .def_93 .def_191)))
(let ((.def_193 (or b.EVENT.1__AT0 .def_192)))
(let ((.def_201 (and .def_193 .def_200)))
(let ((.def_219 (and .def_201 .def_218)))
(let ((.def_100 (= b.time__AT0 b.time__AT1)))
(let ((.def_114 (and .def_100 .def_113)))
(let ((.def_117 (and .def_114 .def_116)))
(let ((.def_120 (and .def_117 .def_119)))
(let ((.def_132 (and .def_120 .def_131)))
(let ((.def_136 (and .def_132 .def_135)))
(let ((.def_137 (or .def_44 .def_136)))
(let ((.def_103 (* (- 1.0) b.time__AT1)))
(let ((.def_106 (+ b.delta__AT0 .def_103)))
(let ((.def_107 (+ b.time__AT0 .def_106)))
(let ((.def_108 (= .def_107 0.0 )))
(let ((.def_109 (or .def_95 .def_108)))
(let ((.def_110 (or b.EVENT.1__AT0 .def_109)))
(let ((.def_101 (or .def_93 .def_100)))
(let ((.def_102 (or b.EVENT.1__AT0 .def_101)))
(let ((.def_111 (and .def_102 .def_110)))
(let ((.def_138 (and .def_111 .def_137)))
(let ((.def_97 (= .def_95 b.event_is_timed__AT1)))
(let ((.def_94 (= b.event_is_timed__AT0 .def_93)))
(let ((.def_98 (and .def_94 .def_97)))
(let ((.def_139 (and .def_98 .def_138)))
(let ((.def_220 (and .def_139 .def_219)))
(let ((.def_224 (and .def_220 .def_223)))
(let ((.def_228 (and .def_224 .def_227)))
(let ((.def_229 (and .def_44 .def_228)))
(let ((.def_248 (and .def_229 .def_247)))
(let ((.def_28 (and .def_25 .def_27)))
(let ((.def_31 (and .def_28 .def_30)))
(let ((.def_249 (and .def_31 .def_248)))
(let ((.def_82 (* b.delta__AT0 .def_81)))
(let ((.def_83 (+ b.speed_y__AT0 .def_82)))
(let ((.def_87 (<= .def_83 0.0 )))
(let ((.def_86 (<= b.speed_y__AT0 0.0 )))
(let ((.def_88 (and .def_86 .def_87)))
(let ((.def_84 (<= 0.0 .def_83)))
(let ((.def_85 (and .def_80 .def_84)))
(let ((.def_89 (or .def_85 .def_88)))
(let ((.def_72 (+ .def_69 .def_71)))
(let ((.def_73 (* (- 1.0) .def_52)))
(let ((.def_76 (+ .def_73 .def_72)))
(let ((.def_77 (+ b.y__AT0 .def_76)))
(let ((.def_78 (<= 0.0 .def_77)))
(let ((.def_53 (<= .def_52 b.y__AT0)))
(let ((.def_79 (and .def_53 .def_78)))
(let ((.def_90 (and .def_79 .def_89)))
(let ((.def_91 (and .def_58 .def_90)))
(let ((.def_59 (and .def_53 .def_58)))
(let ((.def_47 (or .def_44 .def_46)))
(let ((.def_37 (or .def_25 .def_27)))
(let ((.def_41 (or b.counter.3__AT0 .def_37)))
(let ((.def_38 (or b.counter.2__AT0 .def_37)))
(let ((.def_36 (or .def_27 .def_30)))
(let ((.def_39 (and .def_36 .def_38)))
(let ((.def_40 (or .def_33 .def_39)))
(let ((.def_42 (and .def_40 .def_41)))
(let ((.def_48 (and .def_42 .def_47)))
(let ((.def_60 (and .def_48 .def_59)))
(let ((.def_34 (and .def_31 .def_33)))
(let ((.def_22 (= b.y__AT0 10.0 )))
(let ((.def_18 (= b.x__AT0 0.0 )))
(let ((.def_14 (= b.time__AT0 0.0 )))
(let ((.def_16 (and .def_14 b.event_is_timed__AT0)))
(let ((.def_19 (and .def_16 .def_18)))
(let ((.def_23 (and .def_19 .def_22)))
(let ((.def_35 (and .def_23 .def_34)))
(let ((.def_61 (and .def_35 .def_60)))
(let ((.def_7 (and .def_4 .def_6)))
(let ((.def_10 (and .def_7 .def_9)))
(let ((.def_11 (not .def_10)))
(let ((.def_62 (and .def_11 .def_61)))
(let ((.def_92 (and .def_62 .def_91)))
(let ((.def_250 (and .def_92 .def_249)))
(let ((.def_274 (and .def_250 .def_273)))
(let ((.def_427 (and .def_274 .def_426)))
(let ((.def_451 (and .def_427 .def_450)))
.def_451))))))))))))))))))))))))))))))))))))))))))))))))))))))))))))))))))))))))))))))))))))))))))))))))))))))))))))))))))))))))))))))))))))))))))))))))))))))))))))))))))))))))))))))))))))))))))))))))))))))))))))))))))))))))))))))))))))))))))))))))))))))))))))))))))))))))))))))))))))))))))))))))))))))))))))))))))))))))))))))))))))))))))))))))))))))))))))))))))))))))))))))))))))))))))))))))
(check-sat)
(exit)
